p tw 32 35
1 2
2 13
3 4
4 5
5 6
6 7
7 8
7 11
8 9
9 10
9 17
10 19
11 12
12 14
13 24
14 15
15 16
16 17
17 18
18 25
19 20
20 21
21 22
21 28
22 23
23 28
24 27
25 26
27 28
28 29
29 30
30 31
31 32
31 3
32 3
